c 0.011548757553100586 (encode time in sec)
p cnf 256 1048
1 2 3 11 0
1 2 -3 4 0
1 -2 3 7 0
1 -2 -3 5 0
-1 2 3 6 0
-1 2 -3 8 0
-1 -2 3 9 0
-1 -2 -3 10 0
12 13 14 22 0
12 13 -14 15 0
12 -13 14 16 0
12 -13 -14 17 0
-12 13 14 18 0
-12 13 -14 19 0
-12 -13 14 20 0
-12 -13 -14 21 0
23 24 25 26 0
23 24 -25 30 0
23 -24 25 27 0
23 -24 -25 29 0
-23 24 25 28 0
-23 24 -25 31 0
-23 -24 25 33 0
-23 -24 -25 32 0
34 35 36 1 2 3 12 13 14 37 0
34 35 36 1 2 3 12 13 -14 38 0
34 35 36 1 2 3 12 -13 14 0
34 35 36 1 2 3 12 -13 -14 0
34 35 36 1 2 3 -12 13 14 0
34 35 36 1 2 3 -12 13 -14 0
34 35 36 1 2 3 -12 -13 14 37 0
34 35 36 1 2 3 -12 -13 -14 37 0
34 35 36 1 2 -3 12 13 14 38 0
34 35 36 1 2 -3 12 13 -14 88 0
34 35 36 1 2 -3 12 -13 14 0
34 35 36 1 2 -3 12 -13 -14 0
34 35 36 1 2 -3 -12 13 14 0
34 35 36 1 2 -3 -12 13 -14 0
34 35 36 1 2 -3 -12 -13 14 0
34 35 36 1 2 -3 -12 -13 -14 0
34 35 36 1 -2 3 12 13 14 38 0
34 35 36 1 -2 3 12 13 -14 60 0
34 35 36 1 -2 3 12 -13 14 0
34 35 36 1 -2 3 12 -13 -14 0
34 35 36 1 -2 3 -12 13 14 0
34 35 36 1 -2 3 -12 13 -14 0
34 35 36 1 -2 3 -12 -13 14 0
34 35 36 1 -2 3 -12 -13 -14 0
34 35 36 1 -2 -3 12 13 14 0
34 35 36 1 -2 -3 12 13 -14 0
34 35 36 1 -2 -3 12 -13 14 0
34 35 36 1 -2 -3 12 -13 -14 0
34 35 36 1 -2 -3 -12 13 14 0
34 35 36 1 -2 -3 -12 13 -14 0
34 35 36 1 -2 -3 -12 -13 14 0
34 35 36 1 -2 -3 -12 -13 -14 0
34 35 36 -1 2 3 12 13 14 37 0
34 35 36 -1 2 3 12 13 -14 0
34 35 36 -1 2 3 12 -13 14 0
34 35 36 -1 2 3 12 -13 -14 0
34 35 36 -1 2 3 -12 13 14 0
34 35 36 -1 2 3 -12 13 -14 0
34 35 36 -1 2 3 -12 -13 14 0
34 35 36 -1 2 3 -12 -13 -14 0
34 35 36 -1 2 -3 12 13 14 0
34 35 36 -1 2 -3 12 13 -14 0
34 35 36 -1 2 -3 12 -13 14 0
34 35 36 -1 2 -3 12 -13 -14 0
34 35 36 -1 2 -3 -12 13 14 0
34 35 36 -1 2 -3 -12 13 -14 0
34 35 36 -1 2 -3 -12 -13 14 0
34 35 36 -1 2 -3 -12 -13 -14 0
34 35 36 -1 -2 3 12 13 14 0
34 35 36 -1 -2 3 12 13 -14 0
34 35 36 -1 -2 3 12 -13 14 0
34 35 36 -1 -2 3 12 -13 -14 0
34 35 36 -1 -2 3 -12 13 14 0
34 35 36 -1 -2 3 -12 13 -14 0
34 35 36 -1 -2 3 -12 -13 14 37 0
34 35 36 -1 -2 3 -12 -13 -14 37 0
34 35 36 -1 -2 -3 12 13 14 37 0
34 35 36 -1 -2 -3 12 13 -14 0
34 35 36 -1 -2 -3 12 -13 14 37 0
34 35 36 -1 -2 -3 12 -13 -14 0
34 35 36 -1 -2 -3 -12 13 14 0
34 35 36 -1 -2 -3 -12 13 -14 37 0
34 35 36 -1 -2 -3 -12 -13 14 37 0
34 35 36 -1 -2 -3 -12 -13 -14 37 0
34 35 -36 1 2 3 12 13 14 37 0
34 35 -36 1 2 3 12 13 -14 0
34 35 -36 1 2 3 12 -13 14 38 0
34 35 -36 1 2 3 12 -13 -14 40 0
34 35 -36 1 2 3 -12 13 14 100 0
34 35 -36 1 2 3 -12 13 -14 0
34 35 -36 1 2 3 -12 -13 14 37 0
34 35 -36 1 2 3 -12 -13 -14 37 0
34 35 -36 1 2 -3 12 13 14 0
34 35 -36 1 2 -3 12 13 -14 61 0
34 35 -36 1 2 -3 12 -13 14 89 0
34 35 -36 1 2 -3 12 -13 -14 62 0
34 35 -36 1 2 -3 -12 13 14 0
34 35 -36 1 2 -3 -12 13 -14 0
34 35 -36 1 2 -3 -12 -13 14 0
34 35 -36 1 2 -3 -12 -13 -14 0
34 35 -36 1 -2 3 12 13 14 0
34 35 -36 1 -2 3 12 13 -14 90 0
34 35 -36 1 -2 3 12 -13 14 81 0
34 35 -36 1 -2 3 12 -13 -14 0
34 35 -36 1 -2 3 -12 13 14 0
34 35 -36 1 -2 3 -12 13 -14 0
34 35 -36 1 -2 3 -12 -13 14 0
34 35 -36 1 -2 3 -12 -13 -14 0
34 35 -36 1 -2 -3 12 13 14 38 0
34 35 -36 1 -2 -3 12 13 -14 67 0
34 35 -36 1 -2 -3 12 -13 14 48 0
34 35 -36 1 -2 -3 12 -13 -14 0
34 35 -36 1 -2 -3 -12 13 14 0
34 35 -36 1 -2 -3 -12 13 -14 0
34 35 -36 1 -2 -3 -12 -13 14 0
34 35 -36 1 -2 -3 -12 -13 -14 0
34 35 -36 -1 2 3 12 13 14 37 0
34 35 -36 -1 2 3 12 13 -14 123 0
34 35 -36 -1 2 3 12 -13 14 0
34 35 -36 -1 2 3 12 -13 -14 0
34 35 -36 -1 2 3 -12 13 14 0
34 35 -36 -1 2 3 -12 13 -14 0
34 35 -36 -1 2 3 -12 -13 14 0
34 35 -36 -1 2 3 -12 -13 -14 0
34 35 -36 -1 2 -3 12 13 14 40 0
34 35 -36 -1 2 -3 12 13 -14 100 0
34 35 -36 -1 2 -3 12 -13 14 0
34 35 -36 -1 2 -3 12 -13 -14 0
34 35 -36 -1 2 -3 -12 13 14 0
34 35 -36 -1 2 -3 -12 13 -14 0
34 35 -36 -1 2 -3 -12 -13 14 0
34 35 -36 -1 2 -3 -12 -13 -14 0
34 35 -36 -1 -2 3 12 13 14 0
34 35 -36 -1 -2 3 12 13 -14 0
34 35 -36 -1 -2 3 12 -13 14 0
34 35 -36 -1 -2 3 12 -13 -14 0
34 35 -36 -1 -2 3 -12 13 14 0
34 35 -36 -1 -2 3 -12 13 -14 0
34 35 -36 -1 -2 3 -12 -13 14 37 0
34 35 -36 -1 -2 3 -12 -13 -14 37 0
34 35 -36 -1 -2 -3 12 13 14 37 0
34 35 -36 -1 -2 -3 12 13 -14 0
34 35 -36 -1 -2 -3 12 -13 14 37 0
34 35 -36 -1 -2 -3 12 -13 -14 0
34 35 -36 -1 -2 -3 -12 13 14 0
34 35 -36 -1 -2 -3 -12 13 -14 37 0
34 35 -36 -1 -2 -3 -12 -13 14 37 0
34 35 -36 -1 -2 -3 -12 -13 -14 37 0
34 -35 36 1 2 3 12 13 14 37 0
34 -35 36 1 2 3 12 13 -14 0
34 -35 36 1 2 3 12 -13 14 0
34 -35 36 1 2 3 12 -13 -14 40 0
34 -35 36 1 2 3 -12 13 14 95 0
34 -35 36 1 2 3 -12 13 -14 0
34 -35 36 1 2 3 -12 -13 14 37 0
34 -35 36 1 2 3 -12 -13 -14 37 0
34 -35 36 1 2 -3 12 13 14 0
34 -35 36 1 2 -3 12 13 -14 0
34 -35 36 1 2 -3 12 -13 14 82 0
34 -35 36 1 2 -3 12 -13 -14 116 0
34 -35 36 1 2 -3 -12 13 14 117 0
34 -35 36 1 2 -3 -12 13 -14 0
34 -35 36 1 2 -3 -12 -13 14 0
34 -35 36 1 2 -3 -12 -13 -14 0
34 -35 36 1 -2 3 12 13 14 0
34 -35 36 1 -2 3 12 13 -14 78 0
34 -35 36 1 -2 3 12 -13 14 91 0
34 -35 36 1 -2 3 12 -13 -14 65 0
34 -35 36 1 -2 3 -12 13 14 58 0
34 -35 36 1 -2 3 -12 13 -14 0
34 -35 36 1 -2 3 -12 -13 14 0
34 -35 36 1 -2 3 -12 -13 -14 0
34 -35 36 1 -2 -3 12 13 14 0
34 -35 36 1 -2 -3 12 13 -14 92 0
34 -35 36 1 -2 -3 12 -13 14 74 0
34 -35 36 1 -2 -3 12 -13 -14 69 0
34 -35 36 1 -2 -3 -12 13 14 0
34 -35 36 1 -2 -3 -12 13 -14 0
34 -35 36 1 -2 -3 -12 -13 14 0
34 -35 36 1 -2 -3 -12 -13 -14 0
34 -35 36 -1 2 3 12 13 14 37 0
34 -35 36 -1 2 3 12 13 -14 52 0
34 -35 36 -1 2 3 12 -13 14 79 0
34 -35 36 -1 2 3 12 -13 -14 0
34 -35 36 -1 2 3 -12 13 14 0
34 -35 36 -1 2 3 -12 13 -14 0
34 -35 36 -1 2 3 -12 -13 14 0
34 -35 36 -1 2 3 -12 -13 -14 0
34 -35 36 -1 2 -3 12 13 14 40 0
34 -35 36 -1 2 -3 12 13 -14 104 0
34 -35 36 -1 2 -3 12 -13 14 51 0
34 -35 36 -1 2 -3 12 -13 -14 0
34 -35 36 -1 2 -3 -12 13 14 0
34 -35 36 -1 2 -3 -12 13 -14 0
34 -35 36 -1 2 -3 -12 -13 14 0
34 -35 36 -1 2 -3 -12 -13 -14 0
34 -35 36 -1 -2 3 12 13 14 0
34 -35 36 -1 -2 3 12 13 -14 0
34 -35 36 -1 -2 3 12 -13 14 0
34 -35 36 -1 -2 3 12 -13 -14 0
34 -35 36 -1 -2 3 -12 13 14 0
34 -35 36 -1 -2 3 -12 13 -14 0
34 -35 36 -1 -2 3 -12 -13 14 37 0
34 -35 36 -1 -2 3 -12 -13 -14 37 0
34 -35 36 -1 -2 -3 12 13 14 37 0
34 -35 36 -1 -2 -3 12 13 -14 0
34 -35 36 -1 -2 -3 12 -13 14 37 0
34 -35 36 -1 -2 -3 12 -13 -14 0
34 -35 36 -1 -2 -3 -12 13 14 0
34 -35 36 -1 -2 -3 -12 13 -14 37 0
34 -35 36 -1 -2 -3 -12 -13 14 37 0
34 -35 36 -1 -2 -3 -12 -13 -14 37 0
34 -35 -36 1 2 3 12 13 14 37 0
34 -35 -36 1 2 3 12 13 -14 0
34 -35 -36 1 2 3 12 -13 14 0
34 -35 -36 1 2 3 12 -13 -14 0
34 -35 -36 1 2 3 -12 13 14 100 0
34 -35 -36 1 2 3 -12 13 -14 38 0
34 -35 -36 1 2 3 -12 -13 14 37 0
34 -35 -36 1 2 3 -12 -13 -14 37 0
34 -35 -36 1 2 -3 12 13 14 0
34 -35 -36 1 2 -3 12 13 -14 0
34 -35 -36 1 2 -3 12 -13 14 0
34 -35 -36 1 2 -3 12 -13 -14 101 0
34 -35 -36 1 2 -3 -12 13 14 56 0
34 -35 -36 1 2 -3 -12 13 -14 0
34 -35 -36 1 2 -3 -12 -13 14 0
34 -35 -36 1 2 -3 -12 -13 -14 0
34 -35 -36 1 -2 3 12 13 14 0
34 -35 -36 1 -2 3 12 13 -14 0
34 -35 -36 1 -2 3 12 -13 14 118 0
34 -35 -36 1 -2 3 12 -13 -14 45 0
34 -35 -36 1 -2 3 -12 13 14 46 0
34 -35 -36 1 -2 3 -12 13 -14 83 0
34 -35 -36 1 -2 3 -12 -13 14 0
34 -35 -36 1 -2 3 -12 -13 -14 0
34 -35 -36 1 -2 -3 12 13 14 0
34 -35 -36 1 -2 -3 12 13 -14 86 0
34 -35 -36 1 -2 -3 12 -13 14 110 0
34 -35 -36 1 -2 -3 12 -13 -14 107 0
34 -35 -36 1 -2 -3 -12 13 14 112 0
34 -35 -36 1 -2 -3 -12 13 -14 73 0
34 -35 -36 1 -2 -3 -12 -13 14 0
34 -35 -36 1 -2 -3 -12 -13 -14 0
34 -35 -36 -1 2 3 12 13 14 37 0
34 -35 -36 -1 2 3 12 13 -14 111 0
34 -35 -36 -1 2 3 12 -13 14 54 0
34 -35 -36 -1 2 3 12 -13 -14 57 0
34 -35 -36 -1 2 3 -12 13 14 53 0
34 -35 -36 -1 2 3 -12 13 -14 0
34 -35 -36 -1 2 3 -12 -13 14 0
34 -35 -36 -1 2 3 -12 -13 -14 0
34 -35 -36 -1 2 -3 12 13 14 0
34 -35 -36 -1 2 -3 12 13 -14 41 0
34 -35 -36 -1 2 -3 12 -13 14 109 0
34 -35 -36 -1 2 -3 12 -13 -14 43 0
34 -35 -36 -1 2 -3 -12 13 14 0
34 -35 -36 -1 2 -3 -12 13 -14 0
34 -35 -36 -1 2 -3 -12 -13 14 0
34 -35 -36 -1 2 -3 -12 -13 -14 0
34 -35 -36 -1 -2 3 12 13 14 38 0
34 -35 -36 -1 -2 3 12 13 -14 41 0
34 -35 -36 -1 -2 3 12 -13 14 102 0
34 -35 -36 -1 -2 3 12 -13 -14 37 0
34 -35 -36 -1 -2 3 -12 13 14 0
34 -35 -36 -1 -2 3 -12 13 -14 0
34 -35 -36 -1 -2 3 -12 -13 14 37 0
34 -35 -36 -1 -2 3 -12 -13 -14 37 0
34 -35 -36 -1 -2 -3 12 13 14 37 0
34 -35 -36 -1 -2 -3 12 13 -14 40 0
34 -35 -36 -1 -2 -3 12 -13 14 37 0
34 -35 -36 -1 -2 -3 12 -13 -14 0
34 -35 -36 -1 -2 -3 -12 13 14 0
34 -35 -36 -1 -2 -3 -12 13 -14 37 0
34 -35 -36 -1 -2 -3 -12 -13 14 37 0
34 -35 -36 -1 -2 -3 -12 -13 -14 37 0
-34 35 36 1 2 3 12 13 14 37 0
-34 35 36 1 2 3 12 13 -14 0
-34 35 36 1 2 3 12 -13 14 0
-34 35 36 1 2 3 12 -13 -14 0
-34 35 36 1 2 3 -12 13 14 0
-34 35 36 1 2 3 -12 13 -14 0
-34 35 36 1 2 3 -12 -13 14 37 0
-34 35 36 1 2 3 -12 -13 -14 37 0
-34 35 36 1 2 -3 12 13 14 0
-34 35 36 1 2 -3 12 13 -14 0
-34 35 36 1 2 -3 12 -13 14 0
-34 35 36 1 2 -3 12 -13 -14 0
-34 35 36 1 2 -3 -12 13 14 76 0
-34 35 36 1 2 -3 -12 13 -14 38 0
-34 35 36 1 2 -3 -12 -13 14 95 0
-34 35 36 1 2 -3 -12 -13 -14 0
-34 35 36 1 -2 3 12 13 14 0
-34 35 36 1 -2 3 12 13 -14 0
-34 35 36 1 -2 3 12 -13 14 0
-34 35 36 1 -2 3 12 -13 -14 0
-34 35 36 1 -2 3 -12 13 14 70 0
-34 35 36 1 -2 3 -12 13 -14 121 0
-34 35 36 1 -2 3 -12 -13 14 63 0
-34 35 36 1 -2 3 -12 -13 -14 0
-34 35 36 1 -2 -3 12 13 14 0
-34 35 36 1 -2 -3 12 13 -14 0
-34 35 36 1 -2 -3 12 -13 14 0
-34 35 36 1 -2 -3 12 -13 -14 87 0
-34 35 36 1 -2 -3 -12 13 14 96 0
-34 35 36 1 -2 -3 -12 13 -14 119 0
-34 35 36 1 -2 -3 -12 -13 14 0
-34 35 36 1 -2 -3 -12 -13 -14 0
-34 35 36 -1 2 3 12 13 14 37 0
-34 35 36 -1 2 3 12 13 -14 0
-34 35 36 -1 2 3 12 -13 14 113 0
-34 35 36 -1 2 3 12 -13 -14 105 0
-34 35 36 -1 2 3 -12 13 14 108 0
-34 35 36 -1 2 3 -12 13 -14 114 0
-34 35 36 -1 2 3 -12 -13 14 0
-34 35 36 -1 2 3 -12 -13 -14 0
-34 35 36 -1 2 -3 12 13 14 0
-34 35 36 -1 2 -3 12 13 -14 0
-34 35 36 -1 2 -3 12 -13 14 97 0
-34 35 36 -1 2 -3 12 -13 -14 75 0
-34 35 36 -1 2 -3 -12 13 14 49 0
-34 35 36 -1 2 -3 -12 13 -14 0
-34 35 36 -1 2 -3 -12 -13 14 0
-34 35 36 -1 2 -3 -12 -13 -14 0
-34 35 36 -1 -2 3 12 13 14 0
-34 35 36 -1 -2 3 12 13 -14 42 0
-34 35 36 -1 -2 3 12 -13 14 84 0
-34 35 36 -1 -2 3 12 -13 -14 40 0
-34 35 36 -1 -2 3 -12 13 14 0
-34 35 36 -1 -2 3 -12 13 -14 0
-34 35 36 -1 -2 3 -12 -13 14 37 0
-34 35 36 -1 -2 3 -12 -13 -14 37 0
-34 35 36 -1 -2 -3 12 13 14 37 0
-34 35 36 -1 -2 -3 12 13 -14 40 0
-34 35 36 -1 -2 -3 12 -13 14 37 0
-34 35 36 -1 -2 -3 12 -13 -14 0
-34 35 36 -1 -2 -3 -12 13 14 0
-34 35 36 -1 -2 -3 -12 13 -14 37 0
-34 35 36 -1 -2 -3 -12 -13 14 37 0
-34 35 36 -1 -2 -3 -12 -13 -14 37 0
-34 35 -36 1 2 3 12 13 14 37 0
-34 35 -36 1 2 3 12 13 -14 0
-34 35 -36 1 2 3 12 -13 14 0
-34 35 -36 1 2 3 12 -13 -14 0
-34 35 -36 1 2 3 -12 13 14 0
-34 35 -36 1 2 3 -12 13 -14 0
-34 35 -36 1 2 3 -12 -13 14 37 0
-34 35 -36 1 2 3 -12 -13 -14 37 0
-34 35 -36 1 2 -3 12 13 14 0
-34 35 -36 1 2 -3 12 13 -14 0
-34 35 -36 1 2 -3 12 -13 14 0
-34 35 -36 1 2 -3 12 -13 -14 0
-34 35 -36 1 2 -3 -12 13 14 0
-34 35 -36 1 2 -3 -12 13 -14 0
-34 35 -36 1 2 -3 -12 -13 14 66 0
-34 35 -36 1 2 -3 -12 -13 -14 0
-34 35 -36 1 -2 3 12 13 14 0
-34 35 -36 1 -2 3 12 13 -14 0
-34 35 -36 1 -2 3 12 -13 14 0
-34 35 -36 1 -2 3 12 -13 -14 0
-34 35 -36 1 -2 3 -12 13 14 99 0
-34 35 -36 1 -2 3 -12 13 -14 62 0
-34 35 -36 1 -2 3 -12 -13 14 91 0
-34 35 -36 1 -2 3 -12 -13 -14 0
-34 35 -36 1 -2 -3 12 13 14 0
-34 35 -36 1 -2 -3 12 13 -14 0
-34 35 -36 1 -2 -3 12 -13 14 0
-34 35 -36 1 -2 -3 12 -13 -14 55 0
-34 35 -36 1 -2 -3 -12 13 14 77 0
-34 35 -36 1 -2 -3 -12 13 -14 80 0
-34 35 -36 1 -2 -3 -12 -13 14 41 0
-34 35 -36 1 -2 -3 -12 -13 -14 0
-34 35 -36 -1 2 3 12 13 14 37 0
-34 35 -36 -1 2 3 12 13 -14 0
-34 35 -36 -1 2 3 12 -13 14 0
-34 35 -36 -1 2 3 12 -13 -14 125 0
-34 35 -36 -1 2 3 -12 13 14 44 0
-34 35 -36 -1 2 3 -12 13 -14 93 0
-34 35 -36 -1 2 3 -12 -13 14 71 0
-34 35 -36 -1 2 3 -12 -13 -14 0
-34 35 -36 -1 2 -3 12 13 14 0
-34 35 -36 -1 2 -3 12 13 -14 0
-34 35 -36 -1 2 -3 12 -13 14 0
-34 35 -36 -1 2 -3 12 -13 -14 64 0
-34 35 -36 -1 2 -3 -12 13 14 94 0
-34 35 -36 -1 2 -3 -12 13 -14 120 0
-34 35 -36 -1 2 -3 -12 -13 14 0
-34 35 -36 -1 2 -3 -12 -13 -14 0
-34 35 -36 -1 -2 3 12 13 14 0
-34 35 -36 -1 -2 3 12 13 -14 0
-34 35 -36 -1 -2 3 12 -13 14 102 0
-34 35 -36 -1 -2 3 12 -13 -14 47 0
-34 35 -36 -1 -2 3 -12 13 14 72 0
-34 35 -36 -1 -2 3 -12 13 -14 0
-34 35 -36 -1 -2 3 -12 -13 14 37 0
-34 35 -36 -1 -2 3 -12 -13 -14 37 0
-34 35 -36 -1 -2 -3 12 13 14 37 0
-34 35 -36 -1 -2 -3 12 13 -14 0
-34 35 -36 -1 -2 -3 12 -13 14 37 0
-34 35 -36 -1 -2 -3 12 -13 -14 38 0
-34 35 -36 -1 -2 -3 -12 13 14 0
-34 35 -36 -1 -2 -3 -12 13 -14 37 0
-34 35 -36 -1 -2 -3 -12 -13 14 37 0
-34 35 -36 -1 -2 -3 -12 -13 -14 37 0
-34 -35 36 1 2 3 12 13 14 37 0
-34 -35 36 1 2 3 12 13 -14 0
-34 -35 36 1 2 3 12 -13 14 0
-34 -35 36 1 2 3 12 -13 -14 0
-34 -35 36 1 2 3 -12 13 14 0
-34 -35 36 1 2 3 -12 13 -14 0
-34 -35 36 1 2 3 -12 -13 14 37 0
-34 -35 36 1 2 3 -12 -13 -14 37 0
-34 -35 36 1 2 -3 12 13 14 0
-34 -35 36 1 2 -3 12 13 -14 0
-34 -35 36 1 2 -3 12 -13 14 0
-34 -35 36 1 2 -3 12 -13 -14 0
-34 -35 36 1 2 -3 -12 13 14 0
-34 -35 36 1 2 -3 -12 13 -14 0
-34 -35 36 1 2 -3 -12 -13 14 0
-34 -35 36 1 2 -3 -12 -13 -14 38 0
-34 -35 36 1 -2 3 12 13 14 0
-34 -35 36 1 -2 3 12 13 -14 0
-34 -35 36 1 -2 3 12 -13 14 0
-34 -35 36 1 -2 3 12 -13 -14 0
-34 -35 36 1 -2 3 -12 13 14 0
-34 -35 36 1 -2 3 -12 13 -14 0
-34 -35 36 1 -2 3 -12 -13 14 63 0
-34 -35 36 1 -2 3 -12 -13 -14 0
-34 -35 36 1 -2 -3 12 13 14 0
-34 -35 36 1 -2 -3 12 13 -14 0
-34 -35 36 1 -2 -3 12 -13 14 0
-34 -35 36 1 -2 -3 12 -13 -14 0
-34 -35 36 1 -2 -3 -12 13 14 0
-34 -35 36 1 -2 -3 -12 13 -14 106 0
-34 -35 36 1 -2 -3 -12 -13 14 42 0
-34 -35 36 1 -2 -3 -12 -13 -14 38 0
-34 -35 36 -1 2 3 12 13 14 37 0
-34 -35 36 -1 2 3 12 13 -14 0
-34 -35 36 -1 2 3 12 -13 14 0
-34 -35 36 -1 2 3 12 -13 -14 0
-34 -35 36 -1 2 3 -12 13 14 103 0
-34 -35 36 -1 2 3 -12 13 -14 85 0
-34 -35 36 -1 2 3 -12 -13 14 66 0
-34 -35 36 -1 2 3 -12 -13 -14 0
-34 -35 36 -1 2 -3 12 13 14 0
-34 -35 36 -1 2 -3 12 13 -14 0
-34 -35 36 -1 2 -3 12 -13 14 0
-34 -35 36 -1 2 -3 12 -13 -14 68 0
-34 -35 36 -1 2 -3 -12 13 14 59 0
-34 -35 36 -1 2 -3 -12 13 -14 50 0
-34 -35 36 -1 2 -3 -12 -13 14 71 0
-34 -35 36 -1 2 -3 -12 -13 -14 0
-34 -35 36 -1 -2 3 12 13 14 0
-34 -35 36 -1 -2 3 12 13 -14 0
-34 -35 36 -1 -2 3 12 -13 14 0
-34 -35 36 -1 -2 3 12 -13 -14 0
-34 -35 36 -1 -2 3 -12 13 14 124 0
-34 -35 36 -1 -2 3 -12 13 -14 0
-34 -35 36 -1 -2 3 -12 -13 14 37 0
-34 -35 36 -1 -2 3 -12 -13 -14 37 0
-34 -35 36 -1 -2 -3 12 13 14 37 0
-34 -35 36 -1 -2 -3 12 13 -14 0
-34 -35 36 -1 -2 -3 12 -13 14 37 0
-34 -35 36 -1 -2 -3 12 -13 -14 0
-34 -35 36 -1 -2 -3 -12 13 14 38 0
-34 -35 36 -1 -2 -3 -12 13 -14 37 0
-34 -35 36 -1 -2 -3 -12 -13 14 37 0
-34 -35 36 -1 -2 -3 -12 -13 -14 37 0
-34 -35 -36 1 2 3 12 13 14 37 0
-34 -35 -36 1 2 3 12 13 -14 0
-34 -35 -36 1 2 3 12 -13 14 0
-34 -35 -36 1 2 3 12 -13 -14 0
-34 -35 -36 1 2 3 -12 13 14 0
-34 -35 -36 1 2 3 -12 13 -14 0
-34 -35 -36 1 2 3 -12 -13 14 37 0
-34 -35 -36 1 2 3 -12 -13 -14 37 0
-34 -35 -36 1 2 -3 12 13 14 0
-34 -35 -36 1 2 -3 12 13 -14 0
-34 -35 -36 1 2 -3 12 -13 14 0
-34 -35 -36 1 2 -3 12 -13 -14 0
-34 -35 -36 1 2 -3 -12 13 14 0
-34 -35 -36 1 2 -3 -12 13 -14 0
-34 -35 -36 1 2 -3 -12 -13 14 0
-34 -35 -36 1 2 -3 -12 -13 -14 0
-34 -35 -36 1 -2 3 12 13 14 0
-34 -35 -36 1 -2 3 12 13 -14 0
-34 -35 -36 1 -2 3 12 -13 14 0
-34 -35 -36 1 -2 3 12 -13 -14 0
-34 -35 -36 1 -2 3 -12 13 14 0
-34 -35 -36 1 -2 3 -12 13 -14 0
-34 -35 -36 1 -2 3 -12 -13 14 0
-34 -35 -36 1 -2 3 -12 -13 -14 38 0
-34 -35 -36 1 -2 -3 12 13 14 0
-34 -35 -36 1 -2 -3 12 13 -14 0
-34 -35 -36 1 -2 -3 12 -13 14 0
-34 -35 -36 1 -2 -3 12 -13 -14 0
-34 -35 -36 1 -2 -3 -12 13 14 0
-34 -35 -36 1 -2 -3 -12 13 -14 0
-34 -35 -36 1 -2 -3 -12 -13 14 0
-34 -35 -36 1 -2 -3 -12 -13 -14 0
-34 -35 -36 -1 2 3 12 13 14 37 0
-34 -35 -36 -1 2 3 12 13 -14 0
-34 -35 -36 -1 2 3 12 -13 14 0
-34 -35 -36 -1 2 3 12 -13 -14 0
-34 -35 -36 -1 2 3 -12 13 14 0
-34 -35 -36 -1 2 3 -12 13 -14 0
-34 -35 -36 -1 2 3 -12 -13 14 104 0
-34 -35 -36 -1 2 3 -12 -13 -14 38 0
-34 -35 -36 -1 2 -3 12 13 14 0
-34 -35 -36 -1 2 -3 12 13 -14 0
-34 -35 -36 -1 2 -3 12 -13 14 0
-34 -35 -36 -1 2 -3 12 -13 -14 0
-34 -35 -36 -1 2 -3 -12 13 14 0
-34 -35 -36 -1 2 -3 -12 13 -14 98 0
-34 -35 -36 -1 2 -3 -12 -13 14 115 0
-34 -35 -36 -1 2 -3 -12 -13 -14 38 0
-34 -35 -36 -1 -2 3 12 13 14 0
-34 -35 -36 -1 -2 3 12 13 -14 0
-34 -35 -36 -1 -2 3 12 -13 14 0
-34 -35 -36 -1 -2 3 12 -13 -14 0
-34 -35 -36 -1 -2 3 -12 13 14 122 0
-34 -35 -36 -1 -2 3 -12 13 -14 38 0
-34 -35 -36 -1 -2 3 -12 -13 14 37 0
-34 -35 -36 -1 -2 3 -12 -13 -14 37 0
-34 -35 -36 -1 -2 -3 12 13 14 37 0
-34 -35 -36 -1 -2 -3 12 13 -14 0
-34 -35 -36 -1 -2 -3 12 -13 14 37 0
-34 -35 -36 -1 -2 -3 12 -13 -14 0
-34 -35 -36 -1 -2 -3 -12 13 14 0
-34 -35 -36 -1 -2 -3 -12 13 -14 37 0
-34 -35 -36 -1 -2 -3 -12 -13 14 37 0
-34 -35 -36 -1 -2 -3 -12 -13 -14 37 0
126 127 128 23 24 25 34 35 36 129 0
126 127 128 23 24 25 34 35 -36 129 0
126 127 128 23 24 25 34 -35 36 249 0
126 127 128 23 24 25 34 -35 -36 141 0
126 127 128 23 24 25 -34 35 36 204 0
126 127 128 23 24 25 -34 35 -36 211 0
126 127 128 23 24 25 -34 -35 36 159 0
126 127 128 23 24 25 -34 -35 -36 129 0
126 127 128 23 24 -25 34 35 36 130 0
126 127 128 23 24 -25 34 35 -36 163 0
126 127 128 23 24 -25 34 -35 36 154 0
126 127 128 23 24 -25 34 -35 -36 150 0
126 127 128 23 24 -25 -34 35 36 238 0
126 127 128 23 24 -25 -34 35 -36 221 0
126 127 128 23 24 -25 -34 -35 36 171 0
126 127 128 23 24 -25 -34 -35 -36 160 0
126 127 128 23 -24 25 34 35 36 192 0
126 127 128 23 -24 25 34 35 -36 245 0
126 127 128 23 -24 25 34 -35 36 239 0
126 127 128 23 -24 25 34 -35 -36 247 0
126 127 128 23 -24 25 -34 35 36 220 0
126 127 128 23 -24 25 -34 35 -36 147 0
126 127 128 23 -24 25 -34 -35 36 152 0
126 127 128 23 -24 25 -34 -35 -36 141 0
126 127 128 23 -24 -25 34 35 36 131 0
126 127 128 23 -24 -25 34 35 -36 248 0
126 127 128 23 -24 -25 34 -35 36 188 0
126 127 128 23 -24 -25 34 -35 -36 212 0
126 127 128 23 -24 -25 -34 35 36 209 0
126 127 128 23 -24 -25 -34 35 -36 232 0
126 127 128 23 -24 -25 -34 -35 36 210 0
126 127 128 23 -24 -25 -34 -35 -36 178 0
126 127 128 -23 24 25 34 35 36 132 0
126 127 128 -23 24 25 34 35 -36 238 0
126 127 128 -23 24 25 34 -35 36 225 0
126 127 128 -23 24 25 34 -35 -36 144 0
126 127 128 -23 24 25 -34 35 36 205 0
126 127 128 -23 24 25 -34 35 -36 243 0
126 127 128 -23 24 25 -34 -35 36 154 0
126 127 128 -23 24 25 -34 -35 -36 133 0
126 127 128 -23 24 -25 34 35 36 161 0
126 127 128 -23 24 -25 34 35 -36 221 0
126 127 128 -23 24 -25 34 -35 36 183 0
126 127 128 -23 24 -25 34 -35 -36 164 0
126 127 128 -23 24 -25 -34 35 36 153 0
126 127 128 -23 24 -25 -34 35 -36 251 0
126 127 128 -23 24 -25 -34 -35 36 141 0
126 127 128 -23 24 -25 -34 -35 -36 173 0
126 127 128 -23 -24 25 34 35 36 129 0
126 127 128 -23 -24 25 34 35 -36 145 0
126 127 128 -23 -24 25 34 -35 36 156 0
126 127 128 -23 -24 25 34 -35 -36 171 0
126 127 128 -23 -24 25 -34 35 36 223 0
126 127 128 -23 -24 25 -34 35 -36 146 0
126 127 128 -23 -24 25 -34 -35 36 204 0
126 127 128 -23 -24 25 -34 -35 -36 129 0
126 127 128 -23 -24 -25 34 35 36 129 0
126 127 128 -23 -24 -25 34 35 -36 129 0
126 127 128 -23 -24 -25 34 -35 36 129 0
126 127 128 -23 -24 -25 34 -35 -36 250 0
126 127 128 -23 -24 -25 -34 35 36 250 0
126 127 128 -23 -24 -25 -34 35 -36 129 0
126 127 128 -23 -24 -25 -34 -35 36 129 0
126 127 128 -23 -24 -25 -34 -35 -36 129 0
126 127 -128 23 24 25 34 35 36 129 0
126 127 -128 23 24 25 34 35 -36 129 0
126 127 -128 23 24 25 34 -35 36 130 0
126 127 -128 23 24 25 34 -35 -36 141 0
126 127 -128 23 24 25 -34 35 36 204 0
126 127 -128 23 24 25 -34 35 -36 211 0
126 127 -128 23 24 25 -34 -35 36 159 0
126 127 -128 23 24 25 -34 -35 -36 129 0
126 127 -128 23 24 -25 34 35 36 249 0
126 127 -128 23 24 -25 34 35 -36 134 0
126 127 -128 23 24 -25 34 -35 36 226 0
126 127 -128 23 24 -25 34 -35 -36 150 0
126 127 -128 23 24 -25 -34 35 36 238 0
126 127 -128 23 24 -25 -34 35 -36 221 0
126 127 -128 23 24 -25 -34 -35 36 171 0
126 127 -128 23 24 -25 -34 -35 -36 160 0
126 127 -128 23 -24 25 34 35 36 174 0
126 127 -128 23 -24 25 34 35 -36 179 0
126 127 -128 23 -24 25 34 -35 36 213 0
126 127 -128 23 -24 25 34 -35 -36 247 0
126 127 -128 23 -24 25 -34 35 36 220 0
126 127 -128 23 -24 25 -34 35 -36 147 0
126 127 -128 23 -24 25 -34 -35 36 152 0
126 127 -128 23 -24 25 -34 -35 -36 141 0
126 127 -128 23 -24 -25 34 35 36 214 0
126 127 -128 23 -24 -25 34 35 -36 151 0
126 127 -128 23 -24 -25 34 -35 36 252 0
126 127 -128 23 -24 -25 34 -35 -36 212 0
126 127 -128 23 -24 -25 -34 35 36 209 0
126 127 -128 23 -24 -25 -34 35 -36 232 0
126 127 -128 23 -24 -25 -34 -35 36 210 0
126 127 -128 23 -24 -25 -34 -35 -36 178 0
126 127 -128 -23 24 25 34 35 36 132 0
126 127 -128 -23 24 25 34 35 -36 199 0
126 127 -128 -23 24 25 34 -35 36 225 0
126 127 -128 -23 24 25 34 -35 -36 144 0
126 127 -128 -23 24 25 -34 35 36 205 0
126 127 -128 -23 24 25 -34 35 -36 243 0
126 127 -128 -23 24 25 -34 -35 36 154 0
126 127 -128 -23 24 25 -34 -35 -36 133 0
126 127 -128 -23 24 -25 34 35 36 198 0
126 127 -128 -23 24 -25 34 35 -36 187 0
126 127 -128 -23 24 -25 34 -35 36 183 0
126 127 -128 -23 24 -25 34 -35 -36 164 0
126 127 -128 -23 24 -25 -34 35 36 153 0
126 127 -128 -23 24 -25 -34 35 -36 251 0
126 127 -128 -23 24 -25 -34 -35 36 141 0
126 127 -128 -23 24 -25 -34 -35 -36 173 0
126 127 -128 -23 -24 25 34 35 36 129 0
126 127 -128 -23 -24 25 34 35 -36 145 0
126 127 -128 -23 -24 25 34 -35 36 156 0
126 127 -128 -23 -24 25 34 -35 -36 171 0
126 127 -128 -23 -24 25 -34 35 36 223 0
126 127 -128 -23 -24 25 -34 35 -36 146 0
126 127 -128 -23 -24 25 -34 -35 36 204 0
126 127 -128 -23 -24 25 -34 -35 -36 129 0
126 127 -128 -23 -24 -25 34 35 36 129 0
126 127 -128 -23 -24 -25 34 35 -36 129 0
126 127 -128 -23 -24 -25 34 -35 36 129 0
126 127 -128 -23 -24 -25 34 -35 -36 250 0
126 127 -128 -23 -24 -25 -34 35 36 250 0
126 127 -128 -23 -24 -25 -34 35 -36 129 0
126 127 -128 -23 -24 -25 -34 -35 36 129 0
126 127 -128 -23 -24 -25 -34 -35 -36 129 0
126 -127 128 23 24 25 34 35 36 129 0
126 -127 128 23 24 25 34 35 -36 129 0
126 -127 128 23 24 25 34 -35 36 249 0
126 -127 128 23 24 25 34 -35 -36 196 0
126 -127 128 23 24 25 -34 35 36 204 0
126 -127 128 23 24 25 -34 35 -36 211 0
126 -127 128 23 24 25 -34 -35 36 159 0
126 -127 128 23 24 25 -34 -35 -36 129 0
126 -127 128 23 24 -25 34 35 36 249 0
126 -127 128 23 24 -25 34 35 -36 218 0
126 -127 128 23 24 -25 34 -35 36 193 0
126 -127 128 23 24 -25 34 -35 -36 137 0
126 -127 128 23 24 -25 -34 35 36 238 0
126 -127 128 23 24 -25 -34 35 -36 221 0
126 -127 128 23 24 -25 -34 -35 36 171 0
126 -127 128 23 24 -25 -34 -35 -36 160 0
126 -127 128 23 -24 25 34 35 36 174 0
126 -127 128 23 -24 25 34 35 -36 245 0
126 -127 128 23 -24 25 34 -35 36 135 0
126 -127 128 23 -24 25 34 -35 -36 149 0
126 -127 128 23 -24 25 -34 35 36 220 0
126 -127 128 23 -24 25 -34 35 -36 147 0
126 -127 128 23 -24 25 -34 -35 36 152 0
126 -127 128 23 -24 25 -34 -35 -36 141 0
126 -127 128 23 -24 -25 34 35 36 171 0
126 -127 128 23 -24 -25 34 35 -36 177 0
126 -127 128 23 -24 -25 34 -35 36 200 0
126 -127 128 23 -24 -25 34 -35 -36 253 0
126 -127 128 23 -24 -25 -34 35 36 209 0
126 -127 128 23 -24 -25 -34 35 -36 232 0
126 -127 128 23 -24 -25 -34 -35 36 210 0
126 -127 128 23 -24 -25 -34 -35 -36 178 0
126 -127 128 -23 24 25 34 35 36 157 0
126 -127 128 -23 24 25 34 35 -36 254 0
126 -127 128 -23 24 25 34 -35 36 197 0
126 -127 128 -23 24 25 34 -35 -36 144 0
126 -127 128 -23 24 25 -34 35 36 205 0
126 -127 128 -23 24 25 -34 35 -36 243 0
126 -127 128 -23 24 25 -34 -35 36 154 0
126 -127 128 -23 24 25 -34 -35 -36 133 0
126 -127 128 -23 24 -25 34 35 36 161 0
126 -127 128 -23 24 -25 34 35 -36 222 0
126 -127 128 -23 24 -25 34 -35 36 227 0
126 -127 128 -23 24 -25 34 -35 -36 164 0
126 -127 128 -23 24 -25 -34 35 36 153 0
126 -127 128 -23 24 -25 -34 35 -36 251 0
126 -127 128 -23 24 -25 -34 -35 36 141 0
126 -127 128 -23 24 -25 -34 -35 -36 173 0
126 -127 128 -23 -24 25 34 35 36 129 0
126 -127 128 -23 -24 25 34 35 -36 180 0
126 -127 128 -23 -24 25 34 -35 36 156 0
126 -127 128 -23 -24 25 34 -35 -36 171 0
126 -127 128 -23 -24 25 -34 35 36 223 0
126 -127 128 -23 -24 25 -34 35 -36 146 0
126 -127 128 -23 -24 25 -34 -35 36 204 0
126 -127 128 -23 -24 25 -34 -35 -36 129 0
126 -127 128 -23 -24 -25 34 35 36 129 0
126 -127 128 -23 -24 -25 34 35 -36 129 0
126 -127 128 -23 -24 -25 34 -35 36 129 0
126 -127 128 -23 -24 -25 34 -35 -36 250 0
126 -127 128 -23 -24 -25 -34 35 36 250 0
126 -127 128 -23 -24 -25 -34 35 -36 129 0
126 -127 128 -23 -24 -25 -34 -35 36 129 0
126 -127 128 -23 -24 -25 -34 -35 -36 129 0
126 -127 -128 23 24 25 34 35 36 129 0
126 -127 -128 23 24 25 34 35 -36 129 0
126 -127 -128 23 24 25 34 -35 36 249 0
126 -127 -128 23 24 25 34 -35 -36 165 0
126 -127 -128 23 24 25 -34 35 36 194 0
126 -127 -128 23 24 25 -34 35 -36 211 0
126 -127 -128 23 24 25 -34 -35 36 159 0
126 -127 -128 23 24 25 -34 -35 -36 129 0
126 -127 -128 23 24 -25 34 35 36 249 0
126 -127 -128 23 24 -25 34 35 -36 218 0
126 -127 -128 23 24 -25 34 -35 36 154 0
126 -127 -128 23 24 -25 34 -35 -36 195 0
126 -127 -128 23 24 -25 -34 35 36 138 0
126 -127 -128 23 24 -25 -34 35 -36 221 0
126 -127 -128 23 24 -25 -34 -35 36 171 0
126 -127 -128 23 24 -25 -34 -35 -36 160 0
126 -127 -128 23 -24 25 34 35 36 174 0
126 -127 -128 23 -24 25 34 35 -36 245 0
126 -127 -128 23 -24 25 34 -35 36 239 0
126 -127 -128 23 -24 25 34 -35 -36 136 0
126 -127 -128 23 -24 25 -34 35 36 142 0
126 -127 -128 23 -24 25 -34 35 -36 147 0
126 -127 -128 23 -24 25 -34 -35 36 152 0
126 -127 -128 23 -24 25 -34 -35 -36 141 0
126 -127 -128 23 -24 -25 34 35 36 171 0
126 -127 -128 23 -24 -25 34 35 -36 248 0
126 -127 -128 23 -24 -25 34 -35 36 241 0
126 -127 -128 23 -24 -25 34 -35 -36 201 0
126 -127 -128 23 -24 -25 -34 35 36 215 0
126 -127 -128 23 -24 -25 -34 35 -36 232 0
126 -127 -128 23 -24 -25 -34 -35 36 210 0
126 -127 -128 23 -24 -25 -34 -35 -36 178 0
126 -127 -128 -23 24 25 34 35 36 157 0
126 -127 -128 -23 24 25 34 35 -36 238 0
126 -127 -128 -23 24 25 34 -35 36 228 0
126 -127 -128 -23 24 25 34 -35 -36 143 0
126 -127 -128 -23 24 25 -34 35 36 205 0
126 -127 -128 -23 24 25 -34 35 -36 243 0
126 -127 -128 -23 24 25 -34 -35 36 154 0
126 -127 -128 -23 24 25 -34 -35 -36 133 0
126 -127 -128 -23 24 -25 34 35 36 161 0
126 -127 -128 -23 24 -25 34 35 -36 221 0
126 -127 -128 -23 24 -25 34 -35 36 181 0
126 -127 -128 -23 24 -25 34 -35 -36 166 0
126 -127 -128 -23 24 -25 -34 35 36 153 0
126 -127 -128 -23 24 -25 -34 35 -36 251 0
126 -127 -128 -23 24 -25 -34 -35 36 141 0
126 -127 -128 -23 24 -25 -34 -35 -36 173 0
126 -127 -128 -23 -24 25 34 35 36 129 0
126 -127 -128 -23 -24 25 34 35 -36 180 0
126 -127 -128 -23 -24 25 34 -35 36 202 0
126 -127 -128 -23 -24 25 34 -35 -36 255 0
126 -127 -128 -23 -24 25 -34 35 36 223 0
126 -127 -128 -23 -24 25 -34 35 -36 146 0
126 -127 -128 -23 -24 25 -34 -35 36 204 0
126 -127 -128 -23 -24 25 -34 -35 -36 129 0
126 -127 -128 -23 -24 -25 34 35 36 129 0
126 -127 -128 -23 -24 -25 34 35 -36 129 0
126 -127 -128 -23 -24 -25 34 -35 36 129 0
126 -127 -128 -23 -24 -25 34 -35 -36 250 0
126 -127 -128 -23 -24 -25 -34 35 36 250 0
126 -127 -128 -23 -24 -25 -34 35 -36 129 0
126 -127 -128 -23 -24 -25 -34 -35 36 129 0
126 -127 -128 -23 -24 -25 -34 -35 -36 129 0
-126 127 128 23 24 25 34 35 36 129 0
-126 127 128 23 24 25 34 35 -36 129 0
-126 127 128 23 24 25 34 -35 36 249 0
-126 127 128 23 24 25 34 -35 -36 141 0
-126 127 128 23 24 25 -34 35 36 167 0
-126 127 128 23 24 25 -34 35 -36 184 0
-126 127 128 23 24 25 -34 -35 36 159 0
-126 127 128 23 24 25 -34 -35 -36 129 0
-126 127 128 23 24 -25 34 35 36 249 0
-126 127 128 23 24 -25 34 35 -36 218 0
-126 127 128 23 24 -25 34 -35 36 154 0
-126 127 128 23 24 -25 34 -35 -36 150 0
-126 127 128 23 24 -25 -34 35 36 207 0
-126 127 128 23 24 -25 -34 35 -36 222 0
-126 127 128 23 24 -25 -34 -35 36 171 0
-126 127 128 23 24 -25 -34 -35 -36 160 0
-126 127 128 23 -24 25 34 35 36 174 0
-126 127 128 23 -24 25 34 35 -36 245 0
-126 127 128 23 -24 25 34 -35 36 239 0
-126 127 128 23 -24 25 34 -35 -36 247 0
-126 127 128 23 -24 25 -34 35 36 175 0
-126 127 128 23 -24 25 -34 35 -36 256 0
-126 127 128 23 -24 25 -34 -35 36 152 0
-126 127 128 23 -24 25 -34 -35 -36 141 0
-126 127 128 23 -24 -25 34 35 36 171 0
-126 127 128 23 -24 -25 34 35 -36 248 0
-126 127 128 23 -24 -25 34 -35 36 188 0
-126 127 128 23 -24 -25 34 -35 -36 158 0
-126 127 128 23 -24 -25 -34 35 36 185 0
-126 127 128 23 -24 -25 -34 35 -36 219 0
-126 127 128 23 -24 -25 -34 -35 36 210 0
-126 127 128 23 -24 -25 -34 -35 -36 178 0
-126 127 128 -23 24 25 34 35 36 157 0
-126 127 128 -23 24 25 34 35 -36 238 0
-126 127 128 -23 24 25 34 -35 36 225 0
-126 127 128 -23 24 25 34 -35 -36 229 0
-126 127 128 -23 24 25 -34 35 36 190 0
-126 127 128 -23 24 25 -34 35 -36 243 0
-126 127 128 -23 24 25 -34 -35 36 154 0
-126 127 128 -23 24 25 -34 -35 -36 133 0
-126 127 128 -23 24 -25 34 35 36 161 0
-126 127 128 -23 24 -25 34 35 -36 221 0
-126 127 128 -23 24 -25 34 -35 36 183 0
-126 127 128 -23 24 -25 34 -35 -36 139 0
-126 127 128 -23 24 -25 -34 35 36 155 0
-126 127 128 -23 24 -25 -34 35 -36 251 0
-126 127 128 -23 24 -25 -34 -35 36 141 0
-126 127 128 -23 24 -25 -34 -35 -36 173 0
-126 127 128 -23 -24 25 34 35 36 129 0
-126 127 128 -23 -24 25 34 35 -36 145 0
-126 127 128 -23 -24 25 34 -35 36 182 0
-126 127 128 -23 -24 25 34 -35 -36 148 0
-126 127 128 -23 -24 25 -34 35 36 168 0
-126 127 128 -23 -24 25 -34 35 -36 146 0
-126 127 128 -23 -24 25 -34 -35 36 204 0
-126 127 128 -23 -24 25 -34 -35 -36 129 0
-126 127 128 -23 -24 -25 34 35 36 129 0
-126 127 128 -23 -24 -25 34 35 -36 129 0
-126 127 128 -23 -24 -25 34 -35 36 129 0
-126 127 128 -23 -24 -25 34 -35 -36 250 0
-126 127 128 -23 -24 -25 -34 35 36 250 0
-126 127 128 -23 -24 -25 -34 35 -36 129 0
-126 127 128 -23 -24 -25 -34 -35 36 129 0
-126 127 128 -23 -24 -25 -34 -35 -36 129 0
-126 127 -128 23 24 25 34 35 36 129 0
-126 127 -128 23 24 25 34 35 -36 129 0
-126 127 -128 23 24 25 34 -35 36 249 0
-126 127 -128 23 24 25 34 -35 -36 141 0
-126 127 -128 23 24 25 -34 35 36 204 0
-126 127 -128 23 24 25 -34 35 -36 211 0
-126 127 -128 23 24 25 -34 -35 36 189 0
-126 127 -128 23 24 25 -34 -35 -36 129 0
-126 127 -128 23 24 -25 34 35 36 249 0
-126 127 -128 23 24 -25 34 35 -36 218 0
-126 127 -128 23 24 -25 34 -35 36 154 0
-126 127 -128 23 24 -25 34 -35 -36 150 0
-126 127 -128 23 24 -25 -34 35 36 238 0
-126 127 -128 23 24 -25 -34 35 -36 187 0
-126 127 -128 23 24 -25 -34 -35 36 235 0
-126 127 -128 23 24 -25 -34 -35 -36 160 0
-126 127 -128 23 -24 25 34 35 36 174 0
-126 127 -128 23 -24 25 34 35 -36 245 0
-126 127 -128 23 -24 25 34 -35 36 239 0
-126 127 -128 23 -24 25 34 -35 -36 247 0
-126 127 -128 23 -24 25 -34 35 36 220 0
-126 127 -128 23 -24 25 -34 35 -36 176 0
-126 127 -128 23 -24 25 -34 -35 36 237 0
-126 127 -128 23 -24 25 -34 -35 -36 141 0
-126 127 -128 23 -24 -25 34 35 36 171 0
-126 127 -128 23 -24 -25 34 35 -36 248 0
-126 127 -128 23 -24 -25 34 -35 36 188 0
-126 127 -128 23 -24 -25 34 -35 -36 212 0
-126 127 -128 23 -24 -25 -34 35 36 206 0
-126 127 -128 23 -24 -25 -34 35 -36 216 0
-126 127 -128 23 -24 -25 -34 -35 36 170 0
-126 127 -128 23 -24 -25 -34 -35 -36 178 0
-126 127 -128 -23 24 25 34 35 36 157 0
-126 127 -128 -23 24 25 34 35 -36 238 0
-126 127 -128 -23 24 25 34 -35 36 225 0
-126 127 -128 -23 24 25 34 -35 -36 144 0
-126 127 -128 -23 24 25 -34 35 36 217 0
-126 127 -128 -23 24 25 -34 35 -36 172 0
-126 127 -128 -23 24 25 -34 -35 36 154 0
-126 127 -128 -23 24 25 -34 -35 -36 133 0
-126 127 -128 -23 24 -25 34 35 36 161 0
-126 127 -128 -23 24 -25 34 35 -36 221 0
-126 127 -128 -23 24 -25 34 -35 36 183 0
-126 127 -128 -23 24 -25 34 -35 -36 164 0
-126 127 -128 -23 24 -25 -34 35 36 244 0
-126 127 -128 -23 24 -25 -34 35 -36 208 0
-126 127 -128 -23 24 -25 -34 -35 36 141 0
-126 127 -128 -23 24 -25 -34 -35 -36 173 0
-126 127 -128 -23 -24 25 34 35 36 129 0
-126 127 -128 -23 -24 25 34 35 -36 145 0
-126 127 -128 -23 -24 25 34 -35 36 156 0
-126 127 -128 -23 -24 25 34 -35 -36 171 0
-126 127 -128 -23 -24 25 -34 35 36 240 0
-126 127 -128 -23 -24 25 -34 35 -36 230 0
-126 127 -128 -23 -24 25 -34 -35 36 204 0
-126 127 -128 -23 -24 25 -34 -35 -36 129 0
-126 127 -128 -23 -24 -25 34 35 36 129 0
-126 127 -128 -23 -24 -25 34 35 -36 129 0
-126 127 -128 -23 -24 -25 34 -35 36 129 0
-126 127 -128 -23 -24 -25 34 -35 -36 246 0
-126 127 -128 -23 -24 -25 -34 35 36 246 0
-126 127 -128 -23 -24 -25 -34 35 -36 129 0
-126 127 -128 -23 -24 -25 -34 -35 36 129 0
-126 127 -128 -23 -24 -25 -34 -35 -36 129 0
-126 -127 128 23 24 25 34 35 36 129 0
-126 -127 128 23 24 25 34 35 -36 129 0
-126 -127 128 23 24 25 34 -35 36 249 0
-126 -127 128 23 24 25 34 -35 -36 141 0
-126 -127 128 23 24 25 -34 35 36 204 0
-126 -127 128 23 24 25 -34 35 -36 211 0
-126 -127 128 23 24 25 -34 -35 36 159 0
-126 -127 128 23 24 25 -34 -35 -36 129 0
-126 -127 128 23 24 -25 34 35 36 249 0
-126 -127 128 23 24 -25 34 35 -36 218 0
-126 -127 128 23 24 -25 34 -35 36 154 0
-126 -127 128 23 24 -25 34 -35 -36 150 0
-126 -127 128 23 24 -25 -34 35 36 238 0
-126 -127 128 23 24 -25 -34 35 -36 221 0
-126 -127 128 23 24 -25 -34 -35 36 169 0
-126 -127 128 23 24 -25 -34 -35 -36 191 0
-126 -127 128 23 -24 25 34 35 36 174 0
-126 -127 128 23 -24 25 34 35 -36 245 0
-126 -127 128 23 -24 25 34 -35 36 239 0
-126 -127 128 23 -24 25 34 -35 -36 247 0
-126 -127 128 23 -24 25 -34 35 36 220 0
-126 -127 128 23 -24 25 -34 35 -36 147 0
-126 -127 128 23 -24 25 -34 -35 36 231 0
-126 -127 128 23 -24 25 -34 -35 -36 196 0
-126 -127 128 23 -24 -25 34 35 36 171 0
-126 -127 128 23 -24 -25 34 35 -36 248 0
-126 -127 128 23 -24 -25 34 -35 36 188 0
-126 -127 128 23 -24 -25 34 -35 -36 212 0
-126 -127 128 23 -24 -25 -34 35 36 209 0
-126 -127 128 23 -24 -25 -34 35 -36 232 0
-126 -127 128 23 -24 -25 -34 -35 36 224 0
-126 -127 128 23 -24 -25 -34 -35 -36 233 0
-126 -127 128 -23 24 25 34 35 36 157 0
-126 -127 128 -23 24 25 34 35 -36 238 0
-126 -127 128 -23 24 25 34 -35 36 225 0
-126 -127 128 -23 24 25 34 -35 -36 144 0
-126 -127 128 -23 24 25 -34 35 36 205 0
-126 -127 128 -23 24 25 -34 35 -36 242 0
-126 -127 128 -23 24 25 -34 -35 36 203 0
-126 -127 128 -23 24 25 -34 -35 -36 133 0
-126 -127 128 -23 24 -25 34 35 36 161 0
-126 -127 128 -23 24 -25 34 35 -36 221 0
-126 -127 128 -23 24 -25 34 -35 36 183 0
-126 -127 128 -23 24 -25 34 -35 -36 164 0
-126 -127 128 -23 24 -25 -34 35 36 153 0
-126 -127 128 -23 24 -25 -34 35 -36 234 0
-126 -127 128 -23 24 -25 -34 -35 36 196 0
-126 -127 128 -23 24 -25 -34 -35 -36 173 0
-126 -127 128 -23 -24 25 34 35 36 129 0
-126 -127 128 -23 -24 25 34 35 -36 145 0
-126 -127 128 -23 -24 25 34 -35 36 156 0
-126 -127 128 -23 -24 25 34 -35 -36 171 0
-126 -127 128 -23 -24 25 -34 35 36 223 0
-126 -127 128 -23 -24 25 -34 35 -36 230 0
-126 -127 128 -23 -24 25 -34 -35 36 167 0
-126 -127 128 -23 -24 25 -34 -35 -36 129 0
-126 -127 128 -23 -24 -25 34 35 36 129 0
-126 -127 128 -23 -24 -25 34 35 -36 129 0
-126 -127 128 -23 -24 -25 34 -35 36 129 0
-126 -127 128 -23 -24 -25 34 -35 -36 250 0
-126 -127 128 -23 -24 -25 -34 35 36 250 0
-126 -127 128 -23 -24 -25 -34 35 -36 129 0
-126 -127 128 -23 -24 -25 -34 -35 36 129 0
-126 -127 128 -23 -24 -25 -34 -35 -36 129 0
-126 -127 -128 23 24 25 34 35 36 129 0
-126 -127 -128 23 24 25 34 35 -36 129 0
-126 -127 -128 23 24 25 34 -35 36 249 0
-126 -127 -128 23 24 25 34 -35 -36 141 0
-126 -127 -128 23 24 25 -34 35 36 204 0
-126 -127 -128 23 24 25 -34 35 -36 211 0
-126 -127 -128 23 24 25 -34 -35 36 159 0
-126 -127 -128 23 24 25 -34 -35 -36 129 0
-126 -127 -128 23 24 -25 34 35 36 249 0
-126 -127 -128 23 24 -25 34 35 -36 218 0
-126 -127 -128 23 24 -25 34 -35 36 154 0
-126 -127 -128 23 24 -25 34 -35 -36 150 0
-126 -127 -128 23 24 -25 -34 35 36 238 0
-126 -127 -128 23 24 -25 -34 35 -36 221 0
-126 -127 -128 23 24 -25 -34 -35 36 171 0
-126 -127 -128 23 24 -25 -34 -35 -36 160 0
-126 -127 -128 23 -24 25 34 35 36 174 0
-126 -127 -128 23 -24 25 34 35 -36 245 0
-126 -127 -128 23 -24 25 34 -35 36 239 0
-126 -127 -128 23 -24 25 34 -35 -36 247 0
-126 -127 -128 23 -24 25 -34 35 36 220 0
-126 -127 -128 23 -24 25 -34 35 -36 147 0
-126 -127 -128 23 -24 25 -34 -35 36 152 0
-126 -127 -128 23 -24 25 -34 -35 -36 165 0
-126 -127 -128 23 -24 -25 34 35 36 171 0
-126 -127 -128 23 -24 -25 34 35 -36 248 0
-126 -127 -128 23 -24 -25 34 -35 36 188 0
-126 -127 -128 23 -24 -25 34 -35 -36 212 0
-126 -127 -128 23 -24 -25 -34 35 36 209 0
-126 -127 -128 23 -24 -25 -34 35 -36 232 0
-126 -127 -128 23 -24 -25 -34 -35 36 210 0
-126 -127 -128 23 -24 -25 -34 -35 -36 186 0
-126 -127 -128 -23 24 25 34 35 36 157 0
-126 -127 -128 -23 24 25 34 35 -36 238 0
-126 -127 -128 -23 24 25 34 -35 36 225 0
-126 -127 -128 -23 24 25 34 -35 -36 144 0
-126 -127 -128 -23 24 25 -34 35 36 205 0
-126 -127 -128 -23 24 25 -34 35 -36 243 0
-126 -127 -128 -23 24 25 -34 -35 36 162 0
-126 -127 -128 -23 24 25 -34 -35 -36 140 0
-126 -127 -128 -23 24 -25 34 35 36 161 0
-126 -127 -128 -23 24 -25 34 35 -36 221 0
-126 -127 -128 -23 24 -25 34 -35 36 183 0
-126 -127 -128 -23 24 -25 34 -35 -36 164 0
-126 -127 -128 -23 24 -25 -34 35 36 153 0
-126 -127 -128 -23 24 -25 -34 35 -36 251 0
-126 -127 -128 -23 24 -25 -34 -35 36 165 0
-126 -127 -128 -23 24 -25 -34 -35 -36 236 0
-126 -127 -128 -23 -24 25 34 35 36 129 0
-126 -127 -128 -23 -24 25 34 35 -36 145 0
-126 -127 -128 -23 -24 25 34 -35 36 156 0
-126 -127 -128 -23 -24 25 34 -35 -36 171 0
-126 -127 -128 -23 -24 25 -34 35 36 223 0
-126 -127 -128 -23 -24 25 -34 35 -36 146 0
-126 -127 -128 -23 -24 25 -34 -35 36 194 0
-126 -127 -128 -23 -24 25 -34 -35 -36 129 0
-126 -127 -128 -23 -24 -25 34 35 36 129 0
-126 -127 -128 -23 -24 -25 34 35 -36 129 0
-126 -127 -128 -23 -24 -25 34 -35 36 129 0
-126 -127 -128 -23 -24 -25 34 -35 -36 250 0
-126 -127 -128 -23 -24 -25 -34 35 36 250 0
-126 -127 -128 -23 -24 -25 -34 35 -36 129 0
-126 -127 -128 -23 -24 -25 -34 -35 36 129 0
-126 -127 -128 -23 -24 -25 -34 -35 -36 129 0
